20180223 14010 14570 13980 14300 592368 847991824 4.18 0.64 1.35 284701 307667 0.93 11.28
20180222 14150 14280 13880 14110 541725 765336192 2.86 0.45 0.79 286977 254748 1.13 10.32
20180214 14370 14550 13860 14000 760377 1077729712 4.65 0.71 -5.60 445953 314424 1.42 14.48
20180213 15980 16060 14830 14830 1192282 1841710880 7.64 1.44 -7.95 773409 418873 1.85 22.71
20180212 16040 16440 15580 16110 969446 1557113824 5.46 1.53 2.22 479124 490322 0.98 18.47
20180209 15810 16340 15300 15760 1173625 1863083728 6.24 2.35 -5.40 651436 522189 1.25 22.35
20180208 18130 18130 15510 16660 1985812 3277728864 15.90 416.91 1.09 1109689 876123 1.27 37.82
20180207 16480 16480 16480 16480 4955 8165428 0.00 1.06 10.01 4955 - - 0.09
20180206 14980 14980 14980 14980 4945 7406935 0.00 1.13 9.99 4945 - - 0.09
20180205 11350 13620 11350 13620 4390 5959235 24.00 - 43.97 4390 - - 0.08
